 &control
 calculation='nscf'
 prefix='cu'
 pseudo_dir= '/home/chris/Work/QE/PP/ONCV_TM/ONCVPSP-master/abinit',
 outdir = './tmp',
/
&system
 ibrav= 6
 A    = 7.524323259
 C    = 21.0000
 nat  = 40
 ntyp = 3
 ecutwfc=50
 occupations='smearing'
 degauss=0.005
 nbnd = 500
 nosym = .true.
/
&electrons
 conv_thr=1e-8
 electron_maxstep=100
 diago_full_acc= .true.
/


ATOMIC_SPECIES
Cu 63.546 Cu_ONCV_PBE_sr.upf
C  12.001  C_ONCV_PBE_sr.upf
H   1.000  H_ONCV_PBE_sr.upf

ATOMIC_POSITIONS (angstrom)
Cu       1.2540539      1.2540539      1.7745096
Cu       1.2540539      3.7621616      1.7745096
Cu       1.2540539      6.2702694      1.7745096
Cu       3.7621616      1.2540539      1.7745096
Cu       3.7621616      3.7621616      1.7745096
Cu       3.7621616      6.2702694      1.7745096
Cu       6.2702694      1.2540539      1.7745096
Cu       6.2702694      3.7621616      1.7745096
Cu       6.2702694      6.2702694      1.7745096
Cu      -0.0000000     -0.0000000      3.5471481
Cu      -0.0000000      2.5081078      3.5471481
Cu      -0.0000000      5.0162155      3.5471481
Cu       2.5081078     -0.0000000      3.5471481
Cu       2.5081078      2.5081078      3.5471481
Cu       2.5081078      5.0162155      3.5471481
Cu       5.0162155     -0.0000000      3.5471481
Cu       5.0162155      2.5081078      3.5471481
Cu       5.0162155      5.0162155      3.5471481
Cu       1.2173089      1.2216649      5.3502926
Cu       1.2643659      3.7354671      5.3721237
Cu       1.3051483      6.2233711      5.3868335
Cu       3.7319576      1.2687723      5.3759110
Cu       3.7592229      3.7620892      5.3179781
Cu       3.7919749      6.2563927      5.3743474
Cu       6.2185227      1.3008503      5.3856822
Cu       6.2531116      3.7887965      5.3721853
Cu       6.3060424      6.3027225      5.3519483
Cu       0.0028142      0.0019800      7.1553930
Cu       7.4086628      2.5105506      7.1394184
Cu       0.1031360      5.0154410      7.1379067
Cu       2.5117288      7.4267928      7.1386841
Cu       2.3653450      2.3837857      7.1780170
Cu       2.6196981      4.9083667      7.2923268
Cu       5.0178023      0.0979564      7.1392638
Cu       4.8908890      2.6154483      7.2963865
Cu       5.1468891      5.1390028      7.1761747
C        3.2668548      3.2827450      8.6647390
C        4.2405386      4.2457130      8.6641832
H        2.8673693      2.8897722      9.6116949
H        4.6374034      4.6444382      9.6099712
K_POINTS (automatic)
 3 3 1 0 0 0 
