 &inputpp
   prefix="cu"
   outdir='./tmp'
/
